4197.53
0 1 2 3 4 5 7 8 9 10 11 12 14 16 17 18 20 21 51 0
0 15 19 22 23 31 32 38 46 53 0
0 26 27 28 30 33 34 36 55 0
0 37 39 40 41 45 48 78 75 0
0 35 42 43 44 49 56 57 95 6 0
0 47 50 52 58 59 61 62 65 68 70 91 0
0 60 63 64 66 67 69 73 76 79 80 81 82 84 85 86 87 92 24 0
0 71 83 90 0
0 88 89 98 99 100 72 29 0
0 93 94 13 25 54 0
0 96 97 74 77 0
